Cost: 523
0-17-32-9-12-0
0-11-38-10-40-0
0-4-27-34-46-0
0-2-28-21-47-0
0-8-19-14-35-7-26-0
0-6-49-24-18-44-3-0
0-16-23-41-42-43-33-0
0-30-48-5-29-45-0
Cost: 523
0-17-32-9-12-0
0-11-38-10-40-0
0-4-27-34-46-0
0-2-28-21-47-0
0-8-19-14-35-7-26-0
0-6-49-24-18-44-3-0
0-16-23-41-42-43-33-0
0-30-48-5-29-45-0
Cost: 523
0-17-32-9-12-0
0-11-38-10-40-0
0-4-27-34-46-0
0-2-28-21-47-0
0-8-19-14-35-7-26-0
0-6-49-24-18-44-3-0
0-16-23-41-42-43-33-0
0-30-48-5-29-45-0
Cost: 523
0-17-32-9-12-0
0-11-38-10-40-0
0-4-27-34-46-0
0-2-28-21-47-0
0-8-19-14-35-7-26-0
0-6-49-24-18-44-3-0
0-16-23-41-42-43-33-0
0-30-48-5-29-45-0
Cost: 523
0-17-32-9-12-0
0-11-38-10-40-0
0-4-27-34-46-0
0-2-28-21-47-0
0-8-19-14-35-7-26-0
0-6-49-24-18-44-3-0
0-16-23-41-42-43-33-0
0-30-48-5-29-45-0
Cost: 523
0-17-32-9-12-0
0-11-38-10-40-0
0-4-27-34-46-0
0-2-28-21-47-0
0-8-19-14-35-7-26-0
0-6-49-24-18-44-3-0
0-16-23-41-42-43-33-0
0-30-48-5-29-45-0
Cost: 523
0-17-32-9-12-0
0-11-38-10-40-0
0-4-27-34-46-0
0-2-28-21-47-0
0-8-19-14-35-7-26-0
0-6-49-24-18-44-3-0
0-16-23-41-42-43-33-0
0-30-48-5-29-45-0
Cost: 523
0-17-32-9-12-0
0-11-38-10-40-0
0-4-27-34-46-0
0-2-28-21-47-0
0-8-19-14-35-7-26-0
0-6-49-24-18-44-3-0
0-16-23-41-42-43-33-0
0-30-48-5-29-45-0
Cost: 523
0-17-32-9-12-0
0-11-38-10-40-0
0-4-27-34-46-0
0-2-28-21-47-0
0-8-19-14-35-7-26-0
0-6-49-24-18-44-3-0
0-16-23-41-42-43-33-0
0-30-48-5-29-45-0
Cost: 523
0-17-32-9-12-0
0-11-38-10-40-0
0-4-27-34-46-0
0-2-28-21-47-0
0-8-19-14-35-7-26-0
0-6-49-24-18-44-3-0
0-16-23-41-42-43-33-0
0-30-48-5-29-45-0
Cost: 523
0-17-32-9-12-0
0-11-38-10-40-0
0-4-27-34-46-0
0-2-28-21-47-0
0-8-19-14-35-7-26-0
0-6-49-24-18-44-3-0
0-16-23-41-42-43-33-0
0-30-48-5-29-45-0
Cost: 523
0-17-32-9-12-0
0-11-38-10-40-0
0-4-27-34-46-0
0-2-28-21-47-0
0-8-19-14-35-7-26-0
0-6-49-24-18-44-3-0
0-16-23-41-42-43-33-0
0-30-48-5-29-45-0
Cost: 523
0-17-32-9-12-0
0-11-38-10-40-0
0-4-27-34-46-0
0-2-28-21-47-0
0-8-19-14-35-7-26-0
0-6-49-24-18-44-3-0
0-16-23-41-42-43-33-0
0-30-48-5-29-45-0
Cost: 523
0-17-32-9-12-0
0-11-38-10-40-0
0-4-27-34-46-0
0-2-28-21-47-0
0-8-19-14-35-7-26-0
0-6-49-24-18-44-3-0
0-16-23-41-42-43-33-0
0-30-48-5-29-45-0
Cost: 523
0-17-32-9-12-0
0-11-38-10-40-0
0-4-27-34-46-0
0-2-28-21-47-0
0-8-19-14-35-7-26-0
0-6-49-24-18-44-3-0
0-16-23-41-42-43-33-0
0-30-48-5-29-45-0
Cost: 523
0-17-32-9-12-0
0-11-38-10-40-0
0-4-27-34-46-0
0-2-28-21-47-0
0-8-19-14-35-7-26-0
0-6-49-24-18-44-3-0
0-16-23-41-42-43-33-0
0-30-48-5-29-45-0
Cost: 523
0-17-32-9-12-0
0-11-38-10-40-0
0-4-27-34-46-0
0-2-28-21-47-0
0-8-19-14-35-7-26-0
0-6-49-24-18-44-3-0
0-16-23-41-42-43-33-0
0-30-48-5-29-45-0
Cost: 523
0-17-32-9-12-0
0-11-38-10-40-0
0-4-27-34-46-0
0-2-28-21-47-0
0-8-19-14-35-7-26-0
0-6-49-24-18-44-3-0
0-16-23-41-42-43-33-0
0-30-48-5-29-45-0
Cost: 523
0-17-32-9-12-0
0-11-38-10-40-0
0-4-27-34-46-0
0-2-28-21-47-0
0-8-19-14-35-7-26-0
0-6-49-24-18-44-3-0
0-16-23-41-42-43-33-0
0-30-48-5-29-45-0
Cost: 523
0-17-32-9-12-0
0-11-38-10-40-0
0-4-27-34-46-0
0-2-28-21-47-0
0-8-19-14-35-7-26-0
0-6-49-24-18-44-3-0
0-16-23-41-42-43-33-0
0-30-48-5-29-45-0
Cost: 523
0-17-32-9-12-0
0-11-38-10-40-0
0-4-27-34-46-0
0-2-28-21-47-0
0-8-19-14-35-7-26-0
0-6-49-24-18-44-3-0
0-16-23-41-42-43-33-0
0-30-48-5-29-45-0
Cost: 523
0-17-32-9-12-0
0-11-38-10-40-0
0-4-27-34-46-0
0-2-28-21-47-0
0-8-19-14-35-7-26-0
0-6-49-24-18-44-3-0
0-16-23-41-42-43-33-0
0-30-48-5-29-45-0
Cost: 523
0-33-43-42-41-23-16-0
0-47-21-28-2-0
0-3-44-18-24-49-6-0
0-30-48-5-29-45-0
0-12-9-32-17-0
0-8-19-14-35-7-26-0
0-11-38-10-40-0
0-46-34-27-4-0
Cost: 523
0-17-32-9-12-0
0-11-38-10-40-0
0-4-27-34-46-0
0-2-28-21-47-0
0-8-19-14-35-7-26-0
0-6-49-24-18-44-3-0
0-16-23-41-42-43-33-0
0-30-48-5-29-45-0
Cost: 523
0-17-32-9-12-0
0-11-38-10-40-0
0-4-27-34-46-0
0-2-28-21-47-0
0-8-19-14-35-7-26-0
0-6-49-24-18-44-3-0
0-16-23-41-42-43-33-0
0-30-48-5-29-45-0
Cost: 523
0-17-32-9-12-0
0-11-38-10-40-0
0-4-27-34-46-0
0-2-28-21-47-0
0-8-19-14-35-7-26-0
0-6-49-24-18-44-3-0
0-16-23-41-42-43-33-0
0-30-48-5-29-45-0
Cost: 523
0-33-43-42-41-23-16-0
0-45-29-5-48-30-0
0-3-44-18-24-49-6-0
0-17-32-9-12-0
0-2-28-21-47-0
0-26-7-35-14-19-8-0
0-40-10-38-11-0
0-34-46-27-4-0
Cost: 0
Cost: 530
0-30-21-28-2-0
0-33-43-42-41-23-16-0
0-29-5-47-48-4-0
0-35-19-13-27-45-0
0-40-10-38-11-0
0-44-18-24-49-3-6-0
0-12-9-32-17-0
0-26-7-8-46-34-0
Cost: 523
0-34-46-27-4-0
0-8-19-14-35-7-26-0
0-2-28-21-47-0
0-11-38-10-40-0
0-12-9-32-17-0
0-45-29-5-48-30-0
0-3-44-18-24-49-6-0
0-33-43-42-41-23-16-0
Cost: 523
0-33-43-42-41-23-16-0
0-8-19-14-35-7-26-0
0-6-49-24-18-44-3-0
0-30-48-5-29-45-0
0-12-9-32-17-0
0-4-27-46-34-0
0-47-21-28-2-0
0-11-38-10-40-0
